c Sudoku solution
p cnf 729 0
134 0
187 0
295 0
328 0
337 0
344 0
386 0
399 0
415 0
125 0
466 0
479 0
522 0
581 0
596 0
619 0
643 0
661 0
672 0
718 0
745 0
839 0
935 0
229 0
857 0
864 0
883 0
875 0
685 0
917 0
514 0
998 0
848 0
658 0
454 0
442 0
488 0
694 0
538 0
636 0
627 0
497 0
573 0
371 0
178 0
193 0
282 0
274 0
268 0
247 0
732 0
892 0
549 0
567 0
555 0
365 0
791 0
777 0
976 0
941 0
756 0
826 0
811 0
231 0
421 0
433 0
146 0
151 0
253 0
352 0
169 0
112 0
313 0
216 0
962 0
959 0
763 0
724 0
923 0
789 0
984 0
